
Gurobi 11.0.3 (linux64) logging started Mon Aug 25 13:16:18 2025

Set parameter LogFile to value "/home/yihong/Coding/OR_SUC/SUC_epstheta_results_bigM100000_thread4/case24_ieee_rts_theta0.1_epsilon0.1_gurobi_seed190000_num_gen100_N_WDR50_load_scaling_factor1_ori_eps_T1quadra_cost_bc1.03.txt"
Set parameter TimeLimit to value 3600
Gurobi Optimizer version 11.0.3 build v11.0.3rc0 (linux64 - "Ubuntu 20.04.6 LTS")

CPU model: AMD EPYC 7532 32-Core Processor, instruction set [SSE2|AVX|AVX2]
Thread count: 64 physical cores, 128 logical processors, using up to 4 threads

Academic license 2399124 - for non-commercial use only - registered to yi___@ed.ac.uk
Optimize a model with 1871 rows, 1291 columns and 53206 nonzeros
Model fingerprint: 0x3c05fab9
Model has 100 quadratic constraints
Variable types: 1191 continuous, 100 integer (100 binary)
Coefficient statistics:
  Matrix range     [3e-04, 6e+01]
  QMatrix range    [2e-03, 8e-03]
  QLMatrix range   [3e-01, 6e+01]
  Objective range  [1e+00, 1e+00]
  Bounds range     [1e+00, 1e+00]
  RHS range        [1e+00, 9e+03]
Presolve removed 1614 rows and 738 columns
Presolve time: 0.01s
Presolved: 257 rows, 553 columns, 1829 nonzeros
Presolved model has 100 quadratic constraint(s)
Variable types: 453 continuous, 100 integer (100 binary)

Root relaxation: objective 1.026801e+03, 189 iterations, 0.00 seconds (0.00 work units)

    Nodes    |    Current Node    |     Objective Bounds      |     Work
 Expl Unexpl |  Obj  Depth IntInf | Incumbent    BestBd   Gap | It/Node Time

     0     0 1026.80053    0    1          - 1026.80053      -     -    0s
     0     0 11592.9279    0   39          - 11592.9279      -     -    0s
     0     0 27510.5775    0   17          - 27510.5775      -     -    0s
     0     0 27512.6180    0   18          - 27512.6180      -     -    0s
     0     0 27524.3846    0    4          - 27524.3846      -     -    0s
     0     0 27525.2961    0    4          - 27525.2961      -     -    0s
     0     0 27525.3002    0    4          - 27525.3002      -     -    0s
     0     0 27525.3002    0    4          - 27525.3002      -     -    0s
     0     2 27525.3002    0    4          - 27525.3002      -     -    0s
H   20    19                    27536.215015 27527.1312  0.03%   5.2    0s
*   20    19               6    27536.215015 27527.1312  0.03%   5.5    0s
H   22    19                    27528.379751 27527.1312  0.00%   5.9    0s
*   22    19               6    27528.379751 27527.1312  0.00%   6.1    0s

Cutting planes:
  Gomory: 6
  Implied bound: 25
  MIR: 11
  Flow cover: 49

Explored 23 nodes (693 simplex iterations) in 0.17 seconds (0.07 work units)
Thread count was 4 (of 128 available processors)

Solution count 2: 27528.4 27536.2 

Optimal solution found (tolerance 1.00e-03)
Warning: max constraint violation (9.8307e-09) exceeds tolerance
Best objective 2.752837975111e+04, best bound 2.752713119986e+04, gap 0.0045%

Gurobi 11.0.3 (linux64) logging started Mon Aug 25 13:16:19 2025

Set parameter LogFile to value "/home/yihong/Coding/OR_SUC/SUC_epstheta_results_bigM100000_thread4/case24_ieee_rts_theta0.1_epsilon0.1_gurobi_seed190000_num_gen100_N_WDR50_load_scaling_factor1_ori_eps_T1quadra_cost_bc1.03.txt"
Set parameter TimeLimit to value 3600
Gurobi Optimizer version 11.0.3 build v11.0.3rc0 (linux64 - "Ubuntu 20.04.6 LTS")

CPU model: AMD EPYC 7532 32-Core Processor, instruction set [SSE2|AVX|AVX2]
Thread count: 64 physical cores, 128 logical processors, using up to 4 threads

Academic license 2399124 - for non-commercial use only - registered to yi___@ed.ac.uk
Optimize a model with 5303 rows, 1292 columns and 424551 nonzeros
Model fingerprint: 0x08050e4d
Model has 101 quadratic constraints
Variable types: 1192 continuous, 100 integer (100 binary)
Coefficient statistics:
  Matrix range     [3e-04, 6e+01]
  QMatrix range    [2e-03, 5e+01]
  QLMatrix range   [3e-01, 6e+01]
  Objective range  [1e+00, 1e+00]
  Bounds range     [1e-01, 1e+00]
  RHS range        [2e-01, 3e+04]
  QRHS range       [5e+00, 5e+00]
Presolve removed 1580 rows and 709 columns
Presolve time: 0.20s
Presolved: 3825 rows, 684 columns, 85338 nonzeros
Presolved model has 100 quadratic constraint(s)
Presolved model has 1 bilinear constraint(s)
Warning: Model contains variables with very large bounds participating
         in product terms.
         Presolve was not able to compute smaller bounds for these variables.
         Consider bounding these variables or reformulating the model.


Solving non-convex MIQCP

Variable types: 584 continuous, 100 integer (100 binary)

Root relaxation: objective 0.000000e+00, 241 iterations, 0.04 seconds (0.08 work units)

    Nodes    |    Current Node    |     Objective Bounds      |     Work
 Expl Unexpl |  Obj  Depth IntInf | Incumbent    BestBd   Gap | It/Node Time

     0     0    0.00000    0    2          -    0.00000      -     -    0s
     0     0    0.00000    0    1          -    0.00000      -     -    0s
H    0     0                       0.0328135    0.00000   100%     -    2s
H    0     0                       0.0322925    0.01340  58.5%     -    2s
     0     0    0.01349    0    3    0.03229    0.01349  58.2%     -    2s
     0     0    0.01369    0    3    0.03229    0.01369  57.6%     -    2s
     0     0    0.01392    0    2    0.03229    0.01392  56.9%     -    2s
     0     0    0.01392    0    2    0.03229    0.01392  56.9%     -    2s
     0     0    0.01392    0    2    0.03229    0.01392  56.9%     -    2s
     0     2    0.01392    0    2    0.03229    0.01392  56.9%     -    2s
H  107    84                       0.0213898    0.01407  34.2%  17.8    2s
*  137    87              22       0.0209536    0.01413  32.6%  15.7   35s
*  184    64              11       0.0209046    0.01428  31.7%  13.0   35s
*  185    64              11       0.0209046    0.01428  31.7%  13.0   35s

Cutting planes:
  Implied bound: 3
  MIR: 5
  Flow cover: 1
  Inf proof: 4

Explored 260 nodes (3503 simplex iterations) in 35.80 seconds (31.58 work units)
Thread count was 4 (of 128 available processors)

Solution count 6: 0.0209046 0.0209046 0.0209536 ... 0.0328135

Optimal solution found (tolerance 1.00e-03)
Best objective 2.090455970502e-02, best bound 2.090455970502e-02, gap 0.0000%
